p cnf 90 47
r 0.081 90 0
e 45 0
r 0.138 89 0
e 44 0
r 0.231 88 0
e 43 0
r 0.713 87 0
e 42 0
r 0.715 86 0
e 41 0
r 0.682 85 0
e 40 0
r 0.892 84 0
e 39 0
r 0.425 83 0
e 38 0
r 0.605 82 0
e 37 0
r 0.787 81 0
e 36 0
r 0.681 80 0
e 35 0
r 0.414 79 0
e 34 0
r 0.755 78 0
e 33 0
r 0.088 77 0
e 32 0
r 0.077 76 0
e 31 0
r 0.457 75 0
e 30 0
r 0.449 74 0
e 29 0
r 0.585 73 0
e 28 0
r 0.794 72 0
e 27 0
r 0.142 71 0
e 26 0
r 0.957 70 0
e 25 0
r 0.181 69 0
e 24 0
r 0.915 68 0
e 23 0
r 0.183 67 0
e 22 0
r 0.843 66 0
e 21 0
r 0.151 65 0
e 20 0
r 0.182 64 0
e 19 0
r 0.966 63 0
e 18 0
r 0.918 62 0
e 17 0
r 0.968 61 0
e 16 0
r 0.145 60 0
e 15 0
r 0.562 59 0
e 14 0
r 0.069 58 0
e 13 0
r 0.001 57 0
e 12 0
r 0.99 56 0
e 11 0
r 0.475 55 0
e 10 0
r 0.922 54 0
e 9 0
r 0.604 53 0
e 8 0
r 0.156 52 0
e 7 0
r 0.306 51 0
e 6 0
r 0.196 50 0
e 5 0
r 0.745 49 0
e 4 0
r 0.015 48 0
e 3 0
r 0.65 47 0
e 2 0
r 0.398 46 0
e 1 0
-45 0
45 89 -44 -88 -43 0
44 88 -43 -87 -42 0
43 87 -42 -86 -41 0
42 86 -41 -85 -40 0
41 85 -40 -84 -39 0
40 84 -39 -83 -38 0
39 83 -38 -82 -37 0
38 82 -37 -81 -36 0
37 81 -36 -80 -35 0
36 80 -35 -79 -34 0
35 79 -34 -78 -33 0
34 78 -33 -77 -32 0
33 77 -32 -76 -31 0
32 76 -31 -75 -30 0
31 75 -30 -74 -29 0
30 74 -29 -73 -28 0
29 73 -28 -72 -27 0
28 72 -27 -71 -26 0
27 71 -26 -70 -25 0
26 70 -25 -69 -24 0
25 69 -24 -68 -23 0
24 68 -23 -67 -22 0
23 67 -22 -66 -21 0
22 66 -21 -65 -20 0
21 65 -20 -64 -19 0
20 64 -19 -63 -18 0
19 63 -18 -62 -17 0
18 62 -17 -61 -16 0
17 61 -16 -60 -15 0
16 60 -15 -59 -14 0
15 59 -14 -58 -13 0
14 58 -13 -57 -12 0
13 57 -12 -56 -11 0
12 56 -11 -55 -10 0
11 55 -10 -54 -9 0
10 54 -9 -53 -8 0
9 53 -8 -52 -7 0
8 52 -7 -51 -6 0
7 51 -6 -50 -5 0
6 50 -5 -49 -4 0
5 49 -4 -48 -3 0
4 48 -3 -47 -2 0
3 47 -2 -46 -1 0
2 1 0
2 -1 0
-2 1 0
